unsat
( _c0
  _c1
  _c10
  _c100
  _c1000
  _c1001
  _c1002
  _c1003
  _c1004
  _c1007
  _c1008
  _c1009
  _c101
  _c1010
  _c1014
  _c1015
  _c1016
  _c1017
  _c1018
  _c1019
  _c102
  _c1020
  _c1022
  _c1023
  _c1024
  _c1025
  _c1026
  _c1027
  _c1028
  _c1029
  _c103
  _c1030
  _c1031
  _c1032
  _c1033
  _c1034
  _c1036
  _c1037
  _c1038
  _c1039
  _c104
  _c1040
  _c1043
  _c1044
  _c1045
  _c1046
  _c105
  _c1050
  _c1051
  _c1052
  _c1057
  _c1058
  _c1059
  _c106
  _c1060
  _c1061
  _c1062
  _c1063
  _c1064
  _c1065
  _c1066
  _c1067
  _c1068
  _c1069
  _c107
  _c1071
  _c1072
  _c1073
  _c1074
  _c1075
  _c1077
  _c1078
  _c1079
  _c108
  _c1080
  _c1081
  _c1082
  _c1083
  _c1084
  _c1085
  _c1086
  _c1087
  _c1088
  _c1089
  _c109
  _c1090
  _c1091
  _c1092
  _c1093
  _c1094
  _c11
  _c110
  _c1100
  _c1101
  _c1102
  _c1103
  _c1104
  _c1105
  _c1106
  _c1107
  _c1108
  _c1109
  _c111
  _c1110
  _c1111
  _c1112
  _c1113
  _c1114
  _c1115
  _c1116
  _c1117
  _c1118
  _c1119
  _c112
  _c1120
  _c1121
  _c1122
  _c1123
  _c1124
  _c113
  _c1130
  _c1137
  _c1138
  _c1139
  _c114
  _c1140
  _c1141
  _c1142
  _c1143
  _c1144
  _c1145
  _c1149
  _c115
  _c1150
  _c1151
  _c1152
  _c1153
  _c1154
  _c116
  _c117
  _c118
  _c1180
  _c1181
  _c1183
  _c1184
  _c119
  _c12
  _c120
  _c1200
  _c1201
  _c1202
  _c1203
  _c1204
  _c1205
  _c1207
  _c1208
  _c1209
  _c121
  _c1210
  _c1211
  _c1212
  _c1213
  _c1214
  _c122
  _c123
  _c1233
  _c124
  _c125
  _c126
  _c127
  _c128
  _c1281
  _c1282
  _c1284
  _c1285
  _c1286
  _c1288
  _c1289
  _c129
  _c1290
  _c1291
  _c1292
  _c1293
  _c1295
  _c1296
  _c1297
  _c1298
  _c130
  _c1300
  _c1302
  _c1303
  _c1304
  _c1307
  _c1308
  _c1309
  _c131
  _c1311
  _c1315
  _c1316
  _c1317
  _c132
  _c1323
  _c1324
  _c1326
  _c1327
  _c1328
  _c1329
  _c133
  _c1330
  _c1331
  _c1332
  _c1333
  _c1334
  _c1335
  _c1336
  _c1337
  _c1338
  _c1339
  _c134
  _c135
  _c136
  _c137
  _c138
  _c139
  _c14
  _c140
  _c141
  _c142
  _c143
  _c144
  _c145
  _c146
  _c147
  _c148
  _c149
  _c15
  _c150
  _c151
  _c152
  _c153
  _c154
  _c155
  _c156
  _c157
  _c158
  _c159
  _c16
  _c160
  _c161
  _c162
  _c163
  _c164
  _c165
  _c166
  _c167
  _c168
  _c169
  _c17
  _c170
  _c171
  _c172
  _c173
  _c174
  _c175
  _c176
  _c177
  _c178
  _c179
  _c18
  _c180
  _c181
  _c182
  _c183
  _c184
  _c185
  _c186
  _c187
  _c188
  _c189
  _c190
  _c191
  _c192
  _c193
  _c194
  _c195
  _c196
  _c197
  _c198
  _c199
  _c2
  _c20
  _c200
  _c201
  _c202
  _c203
  _c204
  _c205
  _c206
  _c207
  _c208
  _c209
  _c21
  _c210
  _c211
  _c212
  _c213
  _c214
  _c215
  _c216
  _c217
  _c218
  _c219
  _c22
  _c220
  _c221
  _c222
  _c223
  _c224
  _c225
  _c226
  _c227
  _c228
  _c229
  _c230
  _c231
  _c232
  _c233
  _c234
  _c235
  _c236
  _c237
  _c238
  _c239
  _c24
  _c240
  _c241
  _c242
  _c243
  _c244
  _c245
  _c246
  _c247
  _c248
  _c249
  _c250
  _c251
  _c252
  _c253
  _c254
  _c255
  _c256
  _c257
  _c258
  _c259
  _c26
  _c260
  _c261
  _c262
  _c263
  _c264
  _c265
  _c266
  _c267
  _c268
  _c269
  _c27
  _c270
  _c271
  _c272
  _c273
  _c274
  _c275
  _c276
  _c277
  _c278
  _c279
  _c28
  _c280
  _c281
  _c282
  _c283
  _c284
  _c285
  _c286
  _c287
  _c288
  _c289
  _c29
  _c290
  _c291
  _c292
  _c293
  _c294
  _c296
  _c298
  _c299
  _c3
  _c30
  _c300
  _c302
  _c303
  _c305
  _c306
  _c308
  _c309
  _c310
  _c312
  _c314
  _c315
  _c316
  _c317
  _c327
  _c328
  _c329
  _c330
  _c331
  _c332
  _c333
  _c334
  _c335
  _c339
  _c340
  _c343
  _c344
  _c345
  _c350
  _c356
  _c357
  _c358
  _c359
  _c360
  _c361
  _c363
  _c364
  _c365
  _c366
  _c367
  _c368
  _c369
  _c370
  _c371
  _c372
  _c373
  _c374
  _c375
  _c376
  _c377
  _c378
  _c379
  _c38
  _c380
  _c381
  _c382
  _c383
  _c384
  _c385
  _c386
  _c387
  _c388
  _c389
  _c390
  _c391
  _c392
  _c393
  _c394
  _c395
  _c396
  _c397
  _c398
  _c399
  _c4
  _c400
  _c401
  _c402
  _c403
  _c404
  _c405
  _c406
  _c408
  _c411
  _c412
  _c413
  _c414
  _c415
  _c416
  _c417
  _c418
  _c419
  _c420
  _c421
  _c422
  _c423
  _c424
  _c425
  _c426
  _c427
  _c428
  _c429
  _c430
  _c431
  _c432
  _c433
  _c434
  _c435
  _c436
  _c437
  _c438
  _c439
  _c44
  _c440
  _c441
  _c442
  _c443
  _c444
  _c445
  _c446
  _c447
  _c448
  _c449
  _c45
  _c450
  _c451
  _c452
  _c453
  _c454
  _c455
  _c456
  _c457
  _c458
  _c459
  _c46
  _c460
  _c461
  _c462
  _c463
  _c464
  _c465
  _c466
  _c467
  _c468
  _c469
  _c47
  _c470
  _c471
  _c472
  _c473
  _c474
  _c475
  _c476
  _c477
  _c478
  _c479
  _c480
  _c481
  _c482
  _c483
  _c484
  _c485
  _c486
  _c487
  _c488
  _c489
  _c490
  _c491
  _c492
  _c493
  _c494
  _c495
  _c496
  _c497
  _c498
  _c499
  _c5
  _c500
  _c501
  _c502
  _c503
  _c504
  _c505
  _c506
  _c507
  _c508
  _c509
  _c51
  _c510
  _c511
  _c512
  _c513
  _c514
  _c515
  _c516
  _c517
  _c518
  _c519
  _c52
  _c520
  _c521
  _c522
  _c523
  _c524
  _c525
  _c526
  _c527
  _c528
  _c529
  _c53
  _c530
  _c531
  _c532
  _c533
  _c534
  _c535
  _c536
  _c537
  _c538
  _c539
  _c54
  _c540
  _c541
  _c542
  _c543
  _c544
  _c545
  _c546
  _c547
  _c548
  _c549
  _c550
  _c551
  _c552
  _c553
  _c554
  _c555
  _c556
  _c557
  _c558
  _c559
  _c56
  _c560
  _c561
  _c562
  _c563
  _c564
  _c565
  _c566
  _c567
  _c568
  _c569
  _c57
  _c570
  _c571
  _c572
  _c573
  _c574
  _c575
  _c576
  _c577
  _c578
  _c579
  _c58
  _c580
  _c581
  _c582
  _c583
  _c584
  _c585
  _c586
  _c587
  _c588
  _c589
  _c59
  _c590
  _c591
  _c592
  _c593
  _c594
  _c595
  _c596
  _c597
  _c598
  _c599
  _c6
  _c60
  _c600
  _c601
  _c602
  _c603
  _c604
  _c605
  _c606
  _c607
  _c608
  _c609
  _c610
  _c611
  _c612
  _c613
  _c614
  _c615
  _c616
  _c617
  _c618
  _c619
  _c62
  _c620
  _c621
  _c622
  _c623
  _c624
  _c625
  _c626
  _c627
  _c628
  _c629
  _c63
  _c630
  _c631
  _c632
  _c633
  _c634
  _c635
  _c636
  _c637
  _c638
  _c639
  _c64
  _c640
  _c641
  _c642
  _c643
  _c644
  _c645
  _c646
  _c647
  _c648
  _c649
  _c65
  _c650
  _c651
  _c652
  _c653
  _c654
  _c655
  _c656
  _c657
  _c66
  _c687
  _c717
  _c718
  _c74
  _c747
  _c748
  _c75
  _c76
  _c77
  _c777
  _c778
  _c779
  _c78
  _c79
  _c8
  _c80
  _c807
  _c808
  _c809
  _c81
  _c810
  _c82
  _c83
  _c837
  _c839
  _c84
  _c840
  _c841
  _c843
  _c844
  _c845
  _c846
  _c847
  _c848
  _c849
  _c85
  _c850
  _c851
  _c852
  _c853
  _c854
  _c855
  _c856
  _c857
  _c858
  _c859
  _c86
  _c860
  _c861
  _c862
  _c863
  _c864
  _c865
  _c866
  _c867
  _c868
  _c869
  _c87
  _c870
  _c871
  _c872
  _c873
  _c874
  _c875
  _c876
  _c877
  _c878
  _c879
  _c88
  _c880
  _c881
  _c882
  _c883
  _c884
  _c885
  _c886
  _c887
  _c888
  _c889
  _c89
  _c890
  _c891
  _c892
  _c893
  _c894
  _c895
  _c896
  _c897
  _c898
  _c899
  _c9
  _c90
  _c900
  _c901
  _c902
  _c903
  _c904
  _c905
  _c906
  _c907
  _c908
  _c909
  _c91
  _c910
  _c911
  _c912
  _c913
  _c914
  _c915
  _c916
  _c917
  _c918
  _c919
  _c92
  _c920
  _c921
  _c922
  _c923
  _c924
  _c925
  _c926
  _c928
  _c929
  _c93
  _c930
  _c931
  _c932
  _c933
  _c934
  _c936
  _c937
  _c938
  _c939
  _c94
  _c940
  _c941
  _c942
  _c943
  _c944
  _c945
  _c946
  _c947
  _c948
  _c949
  _c95
  _c950
  _c951
  _c952
  _c953
  _c954
  _c955
  _c956
  _c957
  _c958
  _c959
  _c96
  _c960
  _c961
  _c962
  _c964
  _c965
  _c966
  _c967
  _c968
  _c97
  _c971
  _c972
  _c973
  _c974
  _c975
  _c976
  _c977
  _c979
  _c98
  _c980
  _c981
  _c982
  _c983
  _c984
  _c985
  _c986
  _c987
  _c988
  _c989
  _c99
  _c990
  _c991
  _c992
  _c993
  _c994
  _c995
  _c996
  _c997
  _c998 )
